\ENCODING=ISO-8859-1
\Problem name: dim5.cor

Minimize
 obj: - 0.75 x - y1 + 3 y2 + y3 + y4 + y5
Subject To
 c1: x <= 5
 c2: - 0.5 x - y1 + y2 - y3 + y4 + y5  = -0.5
 c3: - 0.25 x - y1 + y2 + y3 - y4  = 0.5
End
